1 51 2
-273 -539 -489 -495 -747 -797 -985 -980 -754 -414 -474 -613 -883 -628 -429 -899 -146 -460 -668 -419 -169 -871 -315 -901 -147 -817 -504 -234 -76 -186 -431 -250 -785 -706 -551 -672 -53 -366 -379 -709 -870 -54 -126 -217 -340 -524 -830 -532 -629 -146 0 
-567 -208 -749 -286 -38 -652 -633 -913 -517 -825 -310 -210 -395 -405 -978 -752 -489 -517 -420 -737 -27 -261 -351 -796 -406 -315 -978 -941 -8 -40 -262 -59 -447 -347 -332 -959 -715 -943 -158 -239 -340 -192 -769 -24 -521 -878 -724 -599 -266 -411 0 
323 23 443 39 364 976 961 430 527 521 426 590 937 469 689 17 903 15 882 153 843 374 34 964 408 627 747 114 346 138 324 45 208 620 109 827 869 923 864 669 433 265 674 701 67 71 460 333 896 205 1 
11923 
